Version identifier: 20.1.0.0 | 2020-11-10 | 9bedb6d68
Tried aggregator 2 times.
MIP Presolve eliminated 1897 rows and 1039 columns.
MIP Presolve modified 4756 coefficients.
Aggregator did 198 substitutions.
Reduced MIP has 2714 rows, 2078 columns, and 8916 nonzeros.
Reduced MIP has 351 binaries, 1727 generals, 0 SOSs, and 0 indicators.
Presolve time = 0.03 sec. (10.66 ticks)
Probing fixed 60 vars, tightened 709 bounds.
Probing time = 0.00 sec. (2.01 ticks)
Tried aggregator 1 time.
Detecting symmetries...
MIP Presolve eliminated 1170 rows and 60 columns.
MIP Presolve modified 123 coefficients.
Reduced MIP has 1544 rows, 2018 columns, and 5046 nonzeros.
Reduced MIP has 545 binaries, 1473 generals, 0 SOSs, and 0 indicators.
Presolve time = 0.01 sec. (5.64 ticks)
Probing time = 0.00 sec. (0.39 ticks)
Clique table members: 5.
MIP emphasis: balance optimality and feasibility.
MIP search method: dynamic search.
Parallel mode: deterministic, using up to 24 threads.
Root relaxation solution time = 0.02 sec. (5.09 ticks)

        Nodes                                         Cuts/
   Node  Left     Objective  IInf  Best Integer    Best Bound    ItCnt     Gap

      0     0        0.0000    76                      0.0000      444         
      0     0        0.0000    99                   Cuts: 108      523         
*     0+    0                           11.0000        0.0000           100.00%
      0     0        cutoff             11.0000       11.0000      657    0.00%
Elapsed time = 0.63 sec. (121.22 ticks, tree = 0.01 MB, solutions = 1)

Cover cuts applied:  1
Implied bound cuts applied:  62
Flow cuts applied:  8
Mixed integer rounding cuts applied:  11
Zero-half cuts applied:  75
Lift and project cuts applied:  9
Gomory fractional cuts applied:  35

Root node processing (before b&c):
  Real time             =    0.63 sec. (121.34 ticks)
Parallel b&c, 24 threads:
  Real time             =    0.00 sec. (0.00 ticks)
  Sync time (average)   =    0.00 sec.
  Wait time (average)   =    0.00 sec.
                          ------------
Total (root+branch&cut) =    0.63 sec. (121.34 ticks)

Solution status = Optimal
Solution LB = 11
Solution UB = 11
Runtime = 0.642816 seconds
	Command being timed: "/home/min/git_repos/CS598MEBProject/CNT-ILP/build/cnt -s 2 ./output/k8_n30/simC_c1_k8_n30_u1_s2_del02.input-right.cnp"
	User time (seconds): 7.63
	System time (seconds): 0.06
	Percent of CPU this job got: 1149%
	Elapsed (wall clock) time (h:mm:ss or m:ss): 0:00.67
	Average shared text size (kbytes): 0
	Average unshared data size (kbytes): 0
	Average stack size (kbytes): 0
	Average total size (kbytes): 0
	Maximum resident set size (kbytes): 113332
	Average resident set size (kbytes): 0
	Major (requiring I/O) page faults: 0
	Minor (reclaiming a frame) page faults: 26445
	Voluntary context switches: 4601
	Involuntary context switches: 1098
	Swaps: 0
	File system inputs: 0
	File system outputs: 16
	Socket messages sent: 0
	Socket messages received: 0
	Signals delivered: 0
	Page size (bytes): 4096
	Exit status: 0
